NAME: ACTUAL_TOURS/amz0853
TYPE: TOUR
COMMENT: RouteID_5b76d097-b9d8-452c-8fad-82016835c9ed
DIMENSION: 153
TOUR_SECTION
138
50
148
152
37
142
127
32
78
40
100
145
49
108
52
57
104
143
63
21
55
4
45
36
90
71
119
130
128
87
11
124
116
70
132
117
95
92
94
103
120
105
115
7
74
23
1
85
113
26
13
75
83
12
89
111
43
41
102
79
109
137
54
35
122
118
139
17
42
88
147
39
114
61
151
56
134
129
123
136
144
38
141
82
146
22
30
64
106
34
93
96
98
72
20
48
31
126
140
76
14
27
15
10
81
19
18
66
80
112
110
91
58
67
8
44
73
62
149
46
24
59
133
97
69
84
53
60
68
6
65
28
135
5
125
150
25
29
77
51
107
16
101
121
2
131
86
153
9
33
3
99
47
-1
EOF
